
atom_style full

read_data	bcc_disordered.data

pair_style lj/cut 0.5

pair_coeff 1 1 1.0 1.0 0.5

timestep 2.0

fix 1 all nve

dump 1 all xtc 1000 bcc.xtc

run 100


